9
0 91 74 82 15 16 100 28 11 
63 0 44 14 32 63 29 63 65 
24 24 0 4 86 62 96 33 65 
86 14 28 0 31 95 83 13 24 
35 77 6 58 0 46 27 44 83 
2 51 93 14 16 0 83 23 29 
86 92 69 96 30 65 0 4 100 
13 63 25 28 7 51 69 0 64 
94 49 13 53 1 27 75 51 0 
